(set-info :smt-lib-version 2.6)
(set-logic QF_NIA)
(set-info :source |AProve team, see http://aprove.informatik.rwth-aachen.de/, submitted for SMT-COMP 2014|)
(set-info :category "industrial")
(set-info :status sat)
(declare-fun b__81 () Int)
(declare-fun a__6 () Int)
(declare-fun a__8 () Int)
(declare-fun b__82 () Int)
(declare-fun b__83 () Int)
(declare-fun a__17 () Int)
(declare-fun a__12 () Int)
(declare-fun b__84 () Int)
(declare-fun a__23 () Int)
(declare-fun a__50 () Int)
(declare-fun a__56 () Int)
(declare-fun b__85 () Int)
(declare-fun a__31 () Int)
(declare-fun a__36 () Int)
(declare-fun a__47 () Int)
(declare-fun a__59 () Int)
(declare-fun b__86 () Int)
(declare-fun a__4 () Int)
(declare-fun a__64 () Int)
(declare-fun b__87 () Int)
(declare-fun a__69 () Int)
(declare-fun b__88 () Int)
(declare-fun a__19 () Int)
(declare-fun a__38 () Int)
(declare-fun a__61 () Int)
(declare-fun a__66 () Int)
(declare-fun a__9 () Int)
(declare-fun b__89 () Int)
(declare-fun a__2 () Int)
(declare-fun a__11 () Int)
(declare-fun a__13 () Int)
(declare-fun a__16 () Int)
(declare-fun a__14 () Int)
(declare-fun a__15 () Int)
(declare-fun a__18 () Int)
(declare-fun a__20 () Int)
(declare-fun a__21 () Int)
(declare-fun a__22 () Int)
(declare-fun a__24 () Int)
(declare-fun a__25 () Int)
(declare-fun a__10 () Int)
(declare-fun a__26 () Int)
(declare-fun a__27 () Int)
(declare-fun a__28 () Int)
(declare-fun a__29 () Int)
(declare-fun a__30 () Int)
(declare-fun a__33 () Int)
(declare-fun a__34 () Int)
(declare-fun a__32 () Int)
(declare-fun a__35 () Int)
(declare-fun a__37 () Int)
(declare-fun a__3 () Int)
(declare-fun a__40 () Int)
(declare-fun a__39 () Int)
(declare-fun a__41 () Int)
(declare-fun a__42 () Int)
(declare-fun a__43 () Int)
(declare-fun a__46 () Int)
(declare-fun a__44 () Int)
(declare-fun a__45 () Int)
(declare-fun a__48 () Int)
(declare-fun a__49 () Int)
(declare-fun a__51 () Int)
(declare-fun a__52 () Int)
(declare-fun a__55 () Int)
(declare-fun a__53 () Int)
(declare-fun a__54 () Int)
(declare-fun a__57 () Int)
(declare-fun a__58 () Int)
(declare-fun a__60 () Int)
(declare-fun a__63 () Int)
(declare-fun a__62 () Int)
(declare-fun a__65 () Int)
(declare-fun a__68 () Int)
(declare-fun a__70 () Int)
(declare-fun a__67 () Int)
(declare-fun a__71 () Int)
(declare-fun a__7 () Int)
(declare-fun a__72 () Int)
(declare-fun a__73 () Int)
(declare-fun a__74 () Int)
(declare-fun a__75 () Int)
(declare-fun a__76 () Int)
(declare-fun a__77 () Int)
(declare-fun a__78 () Int)
(declare-fun a__79 () Int)
(declare-fun a__80 () Int)
(declare-fun a__5 () Int)
(declare-fun a__1 () Int)
(assert (and (>= (+ 1 (* (- 0 1) b__81)) 0) (= (+ (* b__81 a__6 a__8) (* (- 0 1) (* a__6 a__8))) 0) (>= (+ 1 (* (- 0 1) b__82)) 0) (= (+ (* b__82 a__6) (* (- 0 1) a__6)) 0) (>= (+ 1 (* (- 0 1) b__83)) 0) (= (+ (* b__83 a__6 a__17 a__8) (* (- 0 1) (* a__6 a__17 a__8))) 0) (= (+ (* b__83 a__6 a__8 a__12) (* (- 0 1) (* a__6 a__8 a__12))) 0) (>= (+ 1 (* (- 0 1) b__84)) 0) (= (+ (* b__84 a__6 a__17 a__8) (* (- 0 1) (* a__6 a__17 a__8))) 0) (= (+ (* b__84 a__6 a__23 a__8 a__12) (* (- 0 1) (* a__6 a__23 a__8 a__12))) 0) (= (+ (* b__84 a__6 a__50 a__8 a__12) (* (- 0 1) (* a__6 a__50 a__8 a__12))) 0) (= (+ (* b__84 a__6 a__56 a__8 a__12) (* (- 0 1) (* a__6 a__56 a__8 a__12))) 0) (>= (+ 1 (* (- 0 1) b__85)) 0) (= (+ (* b__85 a__6 a__17 a__8) (* (- 0 1) (* a__6 a__17 a__8))) 0) (= (+ (* b__85 a__6 a__31 a__8 a__12) (* (- 0 1) (* a__6 a__31 a__8 a__12))) 0) (= (+ (* b__85 a__6 a__36 a__8 a__12) (* (- 0 1) (* a__6 a__36 a__8 a__12))) 0) (= (+ (* b__85 a__6 a__47 a__8 a__12) (* (- 0 1) (* a__6 a__47 a__8 a__12))) 0) (= (+ (* b__85 a__6 a__59 a__8 a__12) (* (- 0 1) (* a__6 a__59 a__8 a__12))) 0) (>= (+ 1 (* (- 0 1) b__86)) 0) (= (+ (* b__86 a__6 a__17 a__8) (* (- 0 1) (* a__6 a__17 a__8))) 0) (= (+ (* b__86 a__6 a__8 a__12) (* (- 0 1) (* a__6 a__8 a__12))) 0) (= (+ (* b__86 a__6 a__4 a__8 a__12) (* (- 0 1) (* a__6 a__4 a__8 a__12))) 0) (= (+ (* b__86 a__6 a__64 a__8 a__12) (* (- 0 1) (* a__6 a__64 a__8 a__12))) 0) (>= (+ 1 (* (- 0 1) b__87)) 0) (= (+ (* b__87 a__6 a__17 a__8) (* (- 0 1) (* a__6 a__17 a__8))) 0) (= (+ (* b__87 a__6 a__69 a__8 a__12) (* (- 0 1) (* a__6 a__69 a__8 a__12))) 0) (>= (+ 1 (* (- 0 1) b__88)) 0) (= (+ (* b__88 a__6 a__17 a__8) (* (- 0 1) (* a__6 a__17 a__8))) 0) (= (+ (* b__88 a__6 a__8 a__12) (* (- 0 1) (* a__6 a__8 a__12))) 0) (= (+ (* b__88 a__6 a__19 a__8 a__12) (* (- 0 1) (* a__6 a__19 a__8 a__12))) 0) (= (+ (* b__88 a__6 a__38 a__8 a__12) (* (- 0 1) (* a__6 a__38 a__8 a__12))) 0) (= (+ (* b__88 a__6 a__61 a__8 a__12) (* (- 0 1) (* a__6 a__61 a__8 a__12))) 0) (= (+ (* b__88 a__6 a__66 a__8 a__12) (* (- 0 1) (* a__6 a__66 a__8 a__12))) 0) (= (+ (* b__88 a__6 a__8 a__9 a__12) (* (- 0 1) (* a__6 a__8 a__9 a__12))) 0) (>= (+ 1 (* (- 0 1) b__89)) 0) (= (+ (* b__89 a__6 a__17 a__8) (* (- 0 1) (* a__6 a__17 a__8))) 0) (= (+ (* b__89 a__6 a__8 a__9 a__12) (* (- 0 1) (* a__6 a__8 a__9 a__12))) 0) (>= (+ (* a__4 a__2) (* (- 0 1) a__2)) 0) (>= (+ (* a__9 a__6) (* (- 0 1) a__2)) 0) (>= (+ (* a__8 a__2) (* (- 0 1) (* a__12 a__8 a__6))) 0) (>= (+ (* a__9 a__2) (* (- 0 1) (* a__9 a__6))) 0) (>= (+ (* a__8 a__2) (* (- 0 1) a__2)) 0) (>= (+ (* b__81 a__11) (* b__81 a__13 a__12) (* (- 0 1) (* b__81 a__16)) (* (- 0 1) (* b__81 a__13 a__17)) (* (- 0 1) (* b__81 a__11 a__14 a__17)) (* (- 0 1) (* b__81 a__11 a__15 a__17))) 0) (>= (+ (* b__81 a__14 a__12) (* (- 0 1) (* b__81 a__12 a__14 a__17))) 0) (>= (+ (* b__81 a__15 a__12) (* (- 0 1) (* b__81 a__12 a__15 a__17))) 0) (>= (+ (* b__81 a__16) (* b__81 a__13 a__17) (* b__81 a__13 a__14 a__17) (* (- 0 1) (* b__81 a__11)) (* (- 0 1) (* b__81 a__13 a__12)) (* (- 0 1) (* b__81 a__13 a__15 a__12))) 0) (>= (+ (* b__81 a__14 a__14 a__17) (* (- 0 1) (* b__81 a__14 a__12))) 0) (>= (+ (* b__81 a__15 a__14 a__17) (* (- 0 1) (* b__81 a__14 a__15 a__12))) 0) (>= (+ (* b__81 a__15 a__17) (* (- 0 1) (* b__81 a__15 a__15 a__12))) 0) (>= (+ (* b__81 a__11) (* b__81 a__18 a__12) (* (- 0 1) (* b__81 a__16)) (* (- 0 1) (* b__81 a__18 a__17)) (* (- 0 1) (* b__81 a__11 a__19 a__17))) 0) (>= (+ (* b__81 a__19 a__12) (* (- 0 1) (* b__81 a__12 a__19 a__17))) 0) (>= (+ (* b__81 a__20 a__12) (* (- 0 1) (* b__81 a__20 a__17))) 0) (>= (+ (* b__81 a__16) (* b__81 a__13 a__17) (* b__81 a__21 a__15 a__17) (* (- 0 1) (* b__81 a__11))) 0) (>= (+ (* b__81 a__14 a__17) (* (- 0 1) (* b__81 a__12))) 0) (>= (+ (* b__81 a__11) (* b__81 a__22 a__12) (* (- 0 1) (* b__81 a__16)) (* (- 0 1) (* b__81 a__22 a__17)) (* (- 0 1) (* b__81 a__11 a__23 a__17))) 0) (>= (+ (* b__81 a__23 a__12) (* (- 0 1) (* b__81 a__12 a__23 a__17))) 0) (>= (+ (* b__81 a__16) (* b__81 a__13 a__17) (* b__81 a__21 a__14 a__17) (* (- 0 1) (* b__81 a__11))) 0) (>= (+ (* b__81 a__15 a__17) (* (- 0 1) (* b__81 a__12))) 0) (>= (+ (* b__81 a__11) (* b__81 a__24 a__12) (* (- 0 1) (* b__81 a__16)) (* (- 0 1) (* b__81 a__24 a__17))) 0) (>= (+ (* b__81 a__25 a__12) (* (- 0 1) (* b__81 a__25 a__17))) 0) (>= (+ (* b__81 a__16) (* b__81 a__18 a__17) (* b__81 a__10 a__19 a__17) (* (- 0 1) (* b__81 a__11)) (* (- 0 1) (* b__81 a__22 a__12)) (* (- 0 1) (* b__81 a__24 a__23 a__12))) 0) (>= (+ (* b__81 a__20 a__17) (* (- 0 1) (* b__81 a__25 a__23 a__12))) 0) (>= (+ (* b__81 a__11) (* b__81 a__26 a__12) (* (- 0 1) (* b__81 a__16)) (* (- 0 1) (* b__81 a__26 a__17)) (* (- 0 1) (* b__81 a__11 a__27 a__17))) 0) (>= (+ (* b__81 a__27 a__12) (* (- 0 1) (* b__81 a__12 a__27 a__17))) 0) (>= (+ (* b__81 a__28 a__12) (* (- 0 1) (* b__81 a__28 a__17))) 0) (>= (+ (* b__81 a__29 a__12) (* (- 0 1) (* b__81 a__29 a__17))) 0) (>= (+ (* b__81 a__16) (* b__81 a__26 a__17) (* b__81 a__10 a__27 a__17) (* (- 0 1) (* b__81 a__11)) (* (- 0 1) (* b__81 a__30 a__12)) (* (- 0 1) (* b__81 a__33 a__31 a__12))) 0) (>= (+ (* b__81 a__28 a__17) (* (- 0 1) (* b__81 a__34 a__31 a__12))) 0) (>= (+ (* b__81 a__29 a__17) (* (- 0 1) (* b__81 a__32 a__12))) 0) (>= (+ (* b__81 a__11) (* b__81 a__30 a__12) (* (- 0 1) (* b__81 a__16)) (* (- 0 1) (* b__81 a__30 a__17)) (* (- 0 1) (* b__81 a__11 a__31 a__17))) 0) (>= (+ (* b__81 a__31 a__12) (* (- 0 1) (* b__81 a__12 a__31 a__17))) 0) (>= (+ (* b__81 a__32 a__12) (* (- 0 1) (* b__81 a__32 a__17))) 0) (>= (+ (* b__81 a__16) (* b__81 a__30 a__17) (* b__81 a__10 a__31 a__17) (* (- 0 1) (* b__81 a__11)) (* (- 0 1) (* b__81 a__35 a__12)) (* (- 0 1) (* b__81 a__33 a__36 a__12))) 0) (>= (+ (* b__81 a__32 a__17) (* (- 0 1) (* b__81 a__34 a__36 a__12))) 0) (>= (+ (* b__81 a__11) (* b__81 a__33 a__12) (* (- 0 1) (* b__81 a__16)) (* (- 0 1) (* b__81 a__33 a__17))) 0) (>= (+ (* b__81 a__34 a__12) (* (- 0 1) (* b__81 a__34 a__17))) 0) (>= (+ (* b__81 a__16) (* b__81 a__37 a__17) (* b__81 a__10 a__38 a__17) (* (- 0 1) (* b__81 a__11)) (* (- 0 1) (* b__81 a__3 a__12)) (* (- 0 1) (* b__81 a__40 a__4 a__12))) 0) (>= (+ (* b__81 a__39 a__17) (* (- 0 1) (* b__81 a__41 a__4 a__12))) 0) (>= (+ (* b__81 a__11) (* b__81 a__35 a__12) (* (- 0 1) (* b__81 a__16)) (* (- 0 1) (* b__81 a__35 a__17)) (* (- 0 1) (* b__81 a__11 a__36 a__17))) 0) (>= (+ (* b__81 a__36 a__12) (* (- 0 1) (* b__81 a__12 a__36 a__17))) 0) (>= (+ (* b__81 a__16) (* b__81 a__42 a__17) (* b__81 a__10 a__43 a__17) (* (- 0 1) (* b__81 a__11)) (* (- 0 1) (* b__81 a__46 a__12)) (* (- 0 1) (* b__81 a__33 a__47 a__12))) 0) (>= (+ (* b__81 a__44 a__17) (* (- 0 1) (* b__81 a__34 a__47 a__12))) 0) (>= (+ (* b__81 a__45 a__17) (* (- 0 1) (* b__81 a__48 a__12))) 0) (>= (+ (* b__81 a__11) (* b__81 a__37 a__12) (* (- 0 1) (* b__81 a__16)) (* (- 0 1) (* b__81 a__37 a__17)) (* (- 0 1) (* b__81 a__11 a__38 a__17))) 0) (>= (+ (* b__81 a__38 a__12) (* (- 0 1) (* b__81 a__12 a__38 a__17))) 0) (>= (+ (* b__81 a__39 a__12) (* (- 0 1) (* b__81 a__39 a__17))) 0) (>= (+ (* b__81 a__16) (* b__81 a__46 a__17) (* b__81 a__10 a__47 a__17) (* (- 0 1) (* b__81 a__11)) (* (- 0 1) (* b__81 a__49 a__12)) (* (- 0 1) (* b__81 a__24 a__50 a__12))) 0) (>= (+ (* b__81 a__48 a__17) (* (- 0 1) (* b__81 a__25 a__50 a__12))) 0) (>= (+ (* b__81 a__11) (* b__81 a__3 a__12) (* (- 0 1) (* b__81 a__16)) (* (- 0 1) (* b__81 a__3 a__17)) (* (- 0 1) (* b__81 a__11 a__4 a__17))) 0) (>= (+ (* b__81 a__4 a__12) (* (- 0 1) (* b__81 a__12 a__4 a__17))) 0) (>= (+ (* b__81 a__16) (* b__81 a__51 a__17) (* b__81 a__10 a__52 a__17) (* (- 0 1) (* b__81 a__11)) (* (- 0 1) (* b__81 a__55 a__12)) (* (- 0 1) (* b__81 a__24 a__56 a__12))) 0) (>= (+ (* b__81 a__53 a__17) (* (- 0 1) (* b__81 a__25 a__56 a__12))) 0) (>= (+ (* b__81 a__54 a__17) (* (- 0 1) (* b__81 a__57 a__12))) 0) (>= (+ (* b__81 a__11) (* b__81 a__40 a__12) (* (- 0 1) (* b__81 a__16)) (* (- 0 1) (* b__81 a__40 a__17))) 0) (>= (+ (* b__81 a__41 a__12) (* (- 0 1) (* b__81 a__41 a__17))) 0) (>= (+ (* b__81 a__16) (* b__81 a__55 a__17) (* b__81 a__10 a__56 a__17) (* (- 0 1) (* b__81 a__11)) (* (- 0 1) (* b__81 a__58 a__12)) (* (- 0 1) (* b__81 a__33 a__59 a__12))) 0) (>= (+ (* b__81 a__57 a__17) (* (- 0 1) (* b__81 a__34 a__59 a__12))) 0) (>= (+ (* b__81 a__11) (* b__81 a__42 a__12) (* (- 0 1) (* b__81 a__16)) (* (- 0 1) (* b__81 a__42 a__17)) (* (- 0 1) (* b__81 a__11 a__43 a__17))) 0) (>= (+ (* b__81 a__43 a__12) (* (- 0 1) (* b__81 a__12 a__43 a__17))) 0) (>= (+ (* b__81 a__44 a__12) (* (- 0 1) (* b__81 a__44 a__17))) 0) (>= (+ (* b__81 a__45 a__12) (* (- 0 1) (* b__81 a__45 a__17))) 0) (>= (+ (* b__81 a__16) (* b__81 a__60 a__17) (* b__81 a__10 a__61 a__17) (* (- 0 1) (* b__81 a__11)) (* (- 0 1) (* b__81 a__63 a__12)) (* (- 0 1) (* b__81 a__40 a__64 a__12))) 0) (>= (+ (* b__81 a__62 a__17) (* (- 0 1) (* b__81 a__41 a__64 a__12))) 0) (>= (+ (* b__81 a__11) (* b__81 a__46 a__12) (* (- 0 1) (* b__81 a__16)) (* (- 0 1) (* b__81 a__46 a__17)) (* (- 0 1) (* b__81 a__11 a__47 a__17))) 0) (>= (+ (* b__81 a__47 a__12) (* (- 0 1) (* b__81 a__12 a__47 a__17))) 0) (>= (+ (* b__81 a__48 a__12) (* (- 0 1) (* b__81 a__48 a__17))) 0) (>= (+ (* b__81 a__16) (* b__81 a__65 a__17) (* b__81 a__10 a__66 a__17) (* (- 0 1) (* b__81 a__11)) (* (- 0 1) (* b__81 a__68 a__12)) (* (- 0 1) (* b__81 a__70 a__69 a__12))) 0) (>= (+ (* b__81 a__67 a__17) (* (- 0 1) (* b__81 a__71 a__69 a__12))) 0) (>= (+ (* b__81 a__11) (* b__81 a__49 a__12) (* (- 0 1) (* b__81 a__16)) (* (- 0 1) (* b__81 a__49 a__17)) (* (- 0 1) (* b__81 a__11 a__50 a__17))) 0) (>= (+ (* b__81 a__50 a__12) (* (- 0 1) (* b__81 a__12 a__50 a__17))) 0) (>= (+ (* b__81 a__16) (* b__81 a__7 a__17) (* b__81 a__10 a__8 a__17) (* (- 0 1) (* b__81 a__11))) 0) (>= (+ (* b__81 a__9 a__17) (* (- 0 1) (* b__81 a__12))) 0) (>= (+ (* b__81 a__11) (* b__81 a__51 a__12) (* (- 0 1) (* b__81 a__16)) (* (- 0 1) (* b__81 a__51 a__17)) (* (- 0 1) (* b__81 a__11 a__52 a__17))) 0) (>= (+ (* b__81 a__52 a__12) (* (- 0 1) (* b__81 a__12 a__52 a__17))) 0) (>= (+ (* b__81 a__53 a__12) (* (- 0 1) (* b__81 a__53 a__17))) 0) (>= (+ (* b__81 a__54 a__12) (* (- 0 1) (* b__81 a__54 a__17))) 0) (>= (+ (* b__81 a__16) (* b__81 a__33 a__17) (* (- 0 1) (* b__81 a__11)) (* (- 0 1) (* b__81 a__18 a__12)) (* (- 0 1) (* b__81 a__72 a__19 a__12))) 0) (>= (+ (* b__81 a__34 a__17) (* (- 0 1) (* b__81 a__73 a__19 a__12)) (* (- 0 1) (* b__81 a__20 a__12))) 0) (>= (+ (* b__81 a__11) (* b__81 a__55 a__12) (* (- 0 1) (* b__81 a__16)) (* (- 0 1) (* b__81 a__55 a__17)) (* (- 0 1) (* b__81 a__11 a__56 a__17))) 0) (>= (+ (* b__81 a__56 a__12) (* (- 0 1) (* b__81 a__12 a__56 a__17))) 0) (>= (+ (* b__81 a__57 a__12) (* (- 0 1) (* b__81 a__57 a__17))) 0) (>= (+ (* b__81 a__16) (* b__81 a__33 a__17) (* b__81 a__13 a__34 a__17) (* (- 0 1) (* b__81 a__11)) (* (- 0 1) (* b__81 a__26 a__12)) (* (- 0 1) (* b__81 a__7 a__27 a__12)) (* (- 0 1) (* b__81 a__72 a__8 a__27 a__12)) (* (- 0 1) (* b__81 a__72 a__9 a__27 a__12))) 0) (>= (+ (* b__81 a__14 a__34 a__17) (* (- 0 1) (* b__81 a__73 a__8 a__27 a__12)) (* (- 0 1) (* b__81 a__28 a__12))) 0) (>= (+ (* b__81 a__15 a__34 a__17) (* (- 0 1) (* b__81 a__73 a__9 a__27 a__12)) (* (- 0 1) (* b__81 a__29 a__12))) 0) (>= (+ (* b__81 a__11) (* b__81 a__58 a__12) (* (- 0 1) (* b__81 a__16)) (* (- 0 1) (* b__81 a__58 a__17)) (* (- 0 1) (* b__81 a__11 a__59 a__17))) 0) (>= (+ (* b__81 a__59 a__12) (* (- 0 1) (* b__81 a__12 a__59 a__17))) 0) (>= (+ (* b__81 a__16) (* b__81 a__24 a__17) (* (- 0 1) (* b__81 a__11)) (* (- 0 1) (* b__81 a__37 a__12)) (* (- 0 1) (* b__81 a__72 a__38 a__12))) 0) (>= (+ (* b__81 a__25 a__17) (* (- 0 1) (* b__81 a__73 a__38 a__12)) (* (- 0 1) (* b__81 a__39 a__12))) 0) (>= (+ (* b__81 a__11) (* b__81 a__60 a__12) (* (- 0 1) (* b__81 a__16)) (* (- 0 1) (* b__81 a__60 a__17)) (* (- 0 1) (* b__81 a__11 a__61 a__17))) 0) (>= (+ (* b__81 a__61 a__12) (* (- 0 1) (* b__81 a__12 a__61 a__17))) 0) (>= (+ (* b__81 a__62 a__12) (* (- 0 1) (* b__81 a__62 a__17))) 0) (>= (+ (* b__81 a__16) (* b__81 a__24 a__17) (* b__81 a__13 a__25 a__17) (* (- 0 1) (* b__81 a__11)) (* (- 0 1) (* b__81 a__42 a__12)) (* (- 0 1) (* b__81 a__7 a__43 a__12)) (* (- 0 1) (* b__81 a__72 a__8 a__43 a__12)) (* (- 0 1) (* b__81 a__72 a__9 a__43 a__12))) 0) (>= (+ (* b__81 a__14 a__25 a__17) (* (- 0 1) (* b__81 a__73 a__8 a__43 a__12)) (* (- 0 1) (* b__81 a__44 a__12))) 0) (>= (+ (* b__81 a__15 a__25 a__17) (* (- 0 1) (* b__81 a__73 a__9 a__43 a__12)) (* (- 0 1) (* b__81 a__45 a__12))) 0) (>= (+ (* b__81 a__11) (* b__81 a__63 a__12) (* (- 0 1) (* b__81 a__16)) (* (- 0 1) (* b__81 a__63 a__17)) (* (- 0 1) (* b__81 a__11 a__64 a__17))) 0) (>= (+ (* b__81 a__64 a__12) (* (- 0 1) (* b__81 a__12 a__64 a__17))) 0) (>= (+ (* b__81 a__16) (* b__81 a__24 a__17) (* b__81 a__13 a__25 a__17) (* (- 0 1) (* b__81 a__11)) (* (- 0 1) (* b__81 a__51 a__12)) (* (- 0 1) (* b__81 a__7 a__52 a__12)) (* (- 0 1) (* b__81 a__72 a__8 a__52 a__12)) (* (- 0 1) (* b__81 a__72 a__9 a__52 a__12))) 0) (>= (+ (* b__81 a__14 a__25 a__17) (* (- 0 1) (* b__81 a__73 a__8 a__52 a__12)) (* (- 0 1) (* b__81 a__53 a__12))) 0) (>= (+ (* b__81 a__15 a__25 a__17) (* (- 0 1) (* b__81 a__73 a__9 a__52 a__12)) (* (- 0 1) (* b__81 a__54 a__12))) 0) (>= (+ (* b__81 a__11) (* b__81 a__65 a__12) (* (- 0 1) (* b__81 a__16)) (* (- 0 1) (* b__81 a__65 a__17)) (* (- 0 1) (* b__81 a__11 a__66 a__17))) 0) (>= (+ (* b__81 a__66 a__12) (* (- 0 1) (* b__81 a__12 a__66 a__17))) 0) (>= (+ (* b__81 a__67 a__12) (* (- 0 1) (* b__81 a__67 a__17))) 0) (>= (+ (* b__81 a__16) (* b__81 a__70 a__17) (* (- 0 1) (* b__81 a__11)) (* (- 0 1) (* b__81 a__60 a__12)) (* (- 0 1) (* b__81 a__72 a__61 a__12))) 0) (>= (+ (* b__81 a__71 a__17) (* (- 0 1) (* b__81 a__73 a__61 a__12)) (* (- 0 1) (* b__81 a__62 a__12))) 0) (>= (+ (* b__81 a__11) (* b__81 a__68 a__12) (* (- 0 1) (* b__81 a__16)) (* (- 0 1) (* b__81 a__68 a__17)) (* (- 0 1) (* b__81 a__11 a__69 a__17))) 0) (>= (+ (* b__81 a__69 a__12) (* (- 0 1) (* b__81 a__12 a__69 a__17))) 0) (>= (+ (* b__81 a__16) (* b__81 a__70 a__17) (* b__81 a__13 a__71 a__17) (* b__81 a__13 a__15 a__71 a__17) (* (- 0 1) (* b__81 a__11)) (* (- 0 1) (* b__81 a__7 a__12)) (* (- 0 1) (* b__81 a__7 a__8 a__12)) (* (- 0 1) (* b__81 a__40 a__8 a__8 a__12)) (* (- 0 1) (* b__81 a__72 a__9 a__8 a__12)) (* (- 0 1) (* b__81 a__7 a__9 a__12)) (* (- 0 1) (* b__81 a__74 a__8 a__9 a__12)) (* (- 0 1) (* b__81 a__72 a__9 a__9 a__12))) 0) (>= (+ (* b__81 a__14 a__71 a__17) (* b__81 a__15 a__15 a__71 a__17) (* (- 0 1) (* b__81 a__41 a__8 a__8 a__12)) (* (- 0 1) (* b__81 a__73 a__9 a__8 a__12))) 0) (>= (+ (* b__81 a__14 a__15 a__71 a__17) (* (- 0 1) (* b__81 a__75 a__8 a__9 a__12)) (* (- 0 1) (* b__81 a__73 a__9 a__9 a__12))) 0) (>= (+ (* b__81 a__11) (* b__81 a__70 a__12) (* (- 0 1) (* b__81 a__16)) (* (- 0 1) (* b__81 a__70 a__17))) 0) (>= (+ (* b__81 a__71 a__12) (* (- 0 1) (* b__81 a__71 a__17))) 0) (>= (+ (* b__81 a__16) (* b__81 a__74 a__17) (* (- 0 1) (* b__81 a__11)) (* (- 0 1) (* b__81 a__65 a__12)) (* (- 0 1) (* b__81 a__72 a__66 a__12))) 0) (>= (+ (* b__81 a__75 a__17) (* (- 0 1) (* b__81 a__73 a__66 a__12)) (* (- 0 1) (* b__81 a__67 a__12))) 0) (>= (+ (* b__81 a__11) (* b__81 a__7 a__12) (* (- 0 1) (* b__81 a__16)) (* (- 0 1) (* b__81 a__7 a__17)) (* (- 0 1) (* b__81 a__11 a__8 a__17))) 0) (>= (+ (* b__81 a__8 a__12) (* (- 0 1) (* b__81 a__12 a__8 a__17))) 0) (>= (+ (* b__81 a__9 a__12) (* (- 0 1) (* b__81 a__9 a__17))) 0) (>= (+ (* b__81 a__16) (* b__81 a__72 a__17) (* b__81 a__13 a__73 a__17) (* (- 0 1) (* b__81 a__11)) (* (- 0 1) (* b__81 a__7 a__12)) (* (- 0 1) (* b__81 a__72 a__8 a__12)) (* (- 0 1) (* b__81 a__72 a__9 a__12))) 0) (>= (+ (* b__81 a__14 a__73 a__17) (* (- 0 1) (* b__81 a__73 a__8 a__12))) 0) (>= (+ (* b__81 a__15 a__73 a__17) (* (- 0 1) (* b__81 a__73 a__9 a__12))) 0) (>= (+ (* b__81 a__11) (* b__81 a__72 a__12) (* (- 0 1) (* b__81 a__16)) (* (- 0 1) (* b__81 a__72 a__17))) 0) (>= (+ (* b__81 a__73 a__12) (* (- 0 1) (* b__81 a__73 a__17))) 0) (>= (+ (* b__81 a__11) (* b__81 a__74 a__12) (* (- 0 1) (* b__81 a__16)) (* (- 0 1) (* b__81 a__74 a__17))) 0) (>= (+ (* b__81 a__75 a__12) (* (- 0 1) (* b__81 a__75 a__17))) 0) (>= (+ (* b__81 a__11) (* b__81 a__21 a__12) (* (- 0 1) (* b__81 a__16)) (* (- 0 1) (* b__81 a__21 a__17))) 0) (>= (+ (* b__81 a__11) (* b__81 a__10 a__12) (* (- 0 1) (* b__81 a__16)) (* (- 0 1) (* b__81 a__10 a__17))) 0) (>= (+ (* b__81 a__11) (* b__81 a__76 a__12) (* (- 0 1) (* b__81 a__16)) (* (- 0 1) (* b__81 a__76 a__17))) 0) (>= (+ (* b__81 a__11) (* b__81 a__77 a__12) (* (- 0 1) (* b__81 a__16)) (* (- 0 1) (* b__81 a__77 a__17))) 0) (>= (+ (* b__81 a__11) (* b__81 a__78 a__12) (* (- 0 1) (* b__81 a__16)) (* (- 0 1) (* b__81 a__78 a__17))) 0) (>= (+ (* b__81 a__11) (* b__81 a__79 a__12) (* (- 0 1) (* b__81 a__16)) (* (- 0 1) (* b__81 a__79 a__17))) 0) (>= (+ (* b__81 a__11) (* b__81 a__80 a__12) (* (- 0 1) (* b__81 a__16)) (* (- 0 1) (* b__81 a__80 a__17))) 0) (>= (+ (* b__82 a__12 a__9) (* (- 0 1) (* b__82 a__9))) 0) (>= (+ (* b__82 a__12 a__8) (* (- 0 1) (* b__82 a__8))) 0) (>= (+ (* b__82 a__17 a__8) (* (- 0 1) (* b__82 a__8))) 0) (>= (+ (* b__82 a__17 a__9) (* (- 0 1) (* b__82 a__9))) 0) (>= (+ (* b__83 a__12 a__15) (* (- 0 1) (* b__83 a__15))) 0) (>= (+ (* b__83 a__12 a__14) (* (- 0 1) (* b__83 a__14))) 0) (>= (+ (* b__83 a__17 a__14) (* (- 0 1) (* b__83 a__14))) 0) (>= (+ (* b__83 a__17 a__15) (* (- 0 1) (* b__83 a__15))) 0) (>= (+ (* b__81 a__16) (* b__81 a__22 a__17) (* b__81 a__10 a__23 a__17) (* (- 0 1) (* b__81 a__11)) (* (- 0 1) (* b__81 a__10 a__12))) 0) (>= (+ (* b__81 a__16) (* b__81 a__35 a__17) (* b__81 a__10 a__36 a__17) (* (- 0 1) (* b__81 a__11)) (* (- 0 1) (* b__81 a__10 a__12))) 0) (>= (+ (* b__81 a__16) (* b__81 a__3 a__17) (* b__81 a__10 a__4 a__17) (* (- 0 1) (* b__81 a__11)) (* (- 0 1) (* b__81 a__10 a__12))) 0) (>= (+ (* b__81 a__16) (* b__81 a__49 a__17) (* b__81 a__10 a__50 a__17) (* (- 0 1) (* b__81 a__11)) (* (- 0 1) (* b__81 a__10 a__12))) 0) (>= (+ (* b__81 a__16) (* b__81 a__58 a__17) (* b__81 a__10 a__59 a__17) (* (- 0 1) (* b__81 a__11)) (* (- 0 1) (* b__81 a__10 a__12))) 0) (>= (+ (* b__81 a__16) (* b__81 a__63 a__17) (* b__81 a__10 a__64 a__17) (* (- 0 1) (* b__81 a__11)) (* (- 0 1) (* b__81 a__10 a__12))) 0) (>= (+ (* b__81 a__16) (* b__81 a__68 a__17) (* b__81 a__10 a__69 a__17) (* (- 0 1) (* b__81 a__11)) (* (- 0 1) (* b__81 a__10 a__12))) 0) (>= (+ (* b__81 a__16) (* b__81 a__33 a__17) (* b__81 a__21 a__34 a__17) (* (- 0 1) (* b__81 a__11)) (* (- 0 1) (* b__81 a__10 a__12))) 0) (>= (+ (* b__81 a__16) (* b__81 a__74 a__17) (* b__81 a__21 a__75 a__17) (* (- 0 1) (* b__81 a__11)) (* (- 0 1) (* b__81 a__10 a__12))) 0) (>= (+ (* b__81 a__16) (* b__81 a__72 a__17) (* b__81 a__76 a__73 a__17) (* (- 0 1) (* b__81 a__11)) (* (- 0 1) (* b__81 a__10 a__12))) 0) (>= (+ (* b__81 a__16) (* b__81 a__72 a__17) (* b__81 a__77 a__73 a__17) (* (- 0 1) (* b__81 a__11)) (* (- 0 1) (* b__81 a__10 a__12))) 0) (>= (+ (* b__81 a__16) (* b__81 a__72 a__17) (* b__81 a__78 a__73 a__17) (* (- 0 1) (* b__81 a__11)) (* (- 0 1) (* b__81 a__10 a__12))) 0) (>= (+ (* b__81 a__16) (* b__81 a__72 a__17) (* b__81 a__21 a__73 a__17) (* (- 0 1) (* b__81 a__11)) (* (- 0 1) (* b__81 a__10 a__12))) 0) (>= (+ (* b__81 a__16) (* b__81 a__72 a__17) (* b__81 a__79 a__73 a__17) (* (- 0 1) (* b__81 a__11)) (* (- 0 1) (* b__81 a__10 a__12))) 0) (>= (+ (* b__81 a__16) (* b__81 a__72 a__17) (* b__81 a__80 a__73 a__17) (* (- 0 1) (* b__81 a__11)) (* (- 0 1) (* b__81 a__10 a__12))) 0) (>= (+ (* b__81 a__16) (* b__81 a__40 a__17) (* b__81 a__76 a__41 a__17) (* (- 0 1) (* b__81 a__11)) (* (- 0 1) (* b__81 a__10 a__12))) 0) (>= (+ (* b__81 a__16) (* b__81 a__40 a__17) (* b__81 a__77 a__41 a__17) (* (- 0 1) (* b__81 a__11)) (* (- 0 1) (* b__81 a__10 a__12))) 0) (>= (+ (* b__81 a__16) (* b__81 a__40 a__17) (* b__81 a__78 a__41 a__17) (* (- 0 1) (* b__81 a__11)) (* (- 0 1) (* b__81 a__10 a__12))) 0) (>= (+ (* b__81 a__16) (* b__81 a__40 a__17) (* b__81 a__79 a__41 a__17) (* (- 0 1) (* b__81 a__11)) (* (- 0 1) (* b__81 a__10 a__12))) 0) (>= (+ (* b__81 a__16) (* b__81 a__40 a__17) (* b__81 a__80 a__41 a__17) (* (- 0 1) (* b__81 a__11)) (* (- 0 1) (* b__81 a__10 a__12))) 0) (>= (+ (* b__83 a__12 a__20) (* (- 0 1) (* b__83 a__20))) 0) (>= (+ (* b__83 a__12 a__19) (* (- 0 1) (* b__83 a__19))) 0) (>= (+ (* b__83 a__17 a__19) (* (- 0 1) (* b__83 a__19))) 0) (>= (+ (* b__83 a__17 a__20) (* (- 0 1) (* b__83 a__20))) 0) (>= (+ (* b__83 a__17 a__23) (* (- 0 1) (* b__83 a__23))) 0) (>= (+ (* b__83 a__12 a__23) (* (- 0 1) (* b__83 a__23))) 0) (>= (+ (* b__84 a__17 a__25) (* (- 0 1) (* b__84 a__25))) 0) (>= (+ (* b__84 a__12 a__25) (* (- 0 1) (* b__84 a__25))) 0) (>= (+ (* b__83 a__12 a__28) (* (- 0 1) (* b__83 a__28))) 0) (>= (+ (* b__83 a__12 a__27) (* (- 0 1) (* b__83 a__27))) 0) (>= (+ (* b__83 a__12 a__29) (* (- 0 1) (* b__83 a__29))) 0) (>= (+ (* b__83 a__17 a__27) (* (- 0 1) (* b__83 a__27))) 0) (>= (+ (* b__83 a__17 a__28) (* (- 0 1) (* b__83 a__28))) 0) (>= (+ (* b__83 a__17 a__29) (* (- 0 1) (* b__83 a__29))) 0) (>= (+ (* b__85 a__17 a__34) (* (- 0 1) (* b__85 a__34))) 0) (>= (+ (* b__85 a__12 a__34) (* (- 0 1) (* b__85 a__34))) 0) (>= (+ (* b__83 a__12 a__32) (* (- 0 1) (* b__83 a__32))) 0) (>= (+ (* b__83 a__12 a__31) (* (- 0 1) (* b__83 a__31))) 0) (>= (+ (* b__83 a__17 a__31) (* (- 0 1) (* b__83 a__31))) 0) (>= (+ (* b__83 a__17 a__32) (* (- 0 1) (* b__83 a__32))) 0) (>= (+ (* b__83 a__17 a__36) (* (- 0 1) (* b__83 a__36))) 0) (>= (+ (* b__83 a__12 a__36) (* (- 0 1) (* b__83 a__36))) 0) (>= (+ (* b__86 a__17 a__41) (* (- 0 1) (* b__86 a__41))) 0) (>= (+ (* b__86 a__12 a__41) (* (- 0 1) (* b__86 a__41))) 0) (>= (+ (* b__83 a__17 a__4) (* (- 0 1) (* b__83 a__4))) 0) (>= (+ (* b__83 a__12 a__4) (* (- 0 1) (* b__83 a__4))) 0) (>= (+ (* b__83 a__12 a__48) (* (- 0 1) (* b__83 a__48))) 0) (>= (+ (* b__83 a__12 a__47) (* (- 0 1) (* b__83 a__47))) 0) (>= (+ (* b__83 a__17 a__47) (* (- 0 1) (* b__83 a__47))) 0) (>= (+ (* b__83 a__17 a__48) (* (- 0 1) (* b__83 a__48))) 0) (>= (+ (* b__83 a__12 a__39) (* (- 0 1) (* b__83 a__39))) 0) (>= (+ (* b__83 a__12 a__38) (* (- 0 1) (* b__83 a__38))) 0) (>= (+ (* b__83 a__17 a__38) (* (- 0 1) (* b__83 a__38))) 0) (>= (+ (* b__83 a__17 a__39) (* (- 0 1) (* b__83 a__39))) 0) (>= (+ (* b__83 a__17 a__50) (* (- 0 1) (* b__83 a__50))) 0) (>= (+ (* b__83 a__12 a__50) (* (- 0 1) (* b__83 a__50))) 0) (>= (+ (* b__83 a__12 a__57) (* (- 0 1) (* b__83 a__57))) 0) (>= (+ (* b__83 a__12 a__56) (* (- 0 1) (* b__83 a__56))) 0) (>= (+ (* b__83 a__17 a__56) (* (- 0 1) (* b__83 a__56))) 0) (>= (+ (* b__83 a__17 a__57) (* (- 0 1) (* b__83 a__57))) 0) (>= (+ (* b__83 a__17 a__59) (* (- 0 1) (* b__83 a__59))) 0) (>= (+ (* b__83 a__12 a__59) (* (- 0 1) (* b__83 a__59))) 0) (>= (+ (* b__83 a__12 a__44) (* (- 0 1) (* b__83 a__44))) 0) (>= (+ (* b__83 a__12 a__43) (* (- 0 1) (* b__83 a__43))) 0) (>= (+ (* b__83 a__12 a__45) (* (- 0 1) (* b__83 a__45))) 0) (>= (+ (* b__83 a__17 a__43) (* (- 0 1) (* b__83 a__43))) 0) (>= (+ (* b__83 a__17 a__44) (* (- 0 1) (* b__83 a__44))) 0) (>= (+ (* b__83 a__17 a__45) (* (- 0 1) (* b__83 a__45))) 0) (>= (+ (* b__83 a__17 a__64) (* (- 0 1) (* b__83 a__64))) 0) (>= (+ (* b__83 a__12 a__64) (* (- 0 1) (* b__83 a__64))) 0) (>= (+ (* b__87 a__17 a__71) (* (- 0 1) (* b__87 a__71))) 0) (>= (+ (* b__87 a__12 a__71) (* (- 0 1) (* b__87 a__71))) 0) (>= (+ (* b__83 a__17 a__69) (* (- 0 1) (* b__83 a__69))) 0) (>= (+ (* b__83 a__12 a__69) (* (- 0 1) (* b__83 a__69))) 0) (>= (+ (* b__83 a__12 a__53) (* (- 0 1) (* b__83 a__53))) 0) (>= (+ (* b__83 a__12 a__52) (* (- 0 1) (* b__83 a__52))) 0) (>= (+ (* b__83 a__12 a__54) (* (- 0 1) (* b__83 a__54))) 0) (>= (+ (* b__83 a__17 a__52) (* (- 0 1) (* b__83 a__52))) 0) (>= (+ (* b__83 a__17 a__53) (* (- 0 1) (* b__83 a__53))) 0) (>= (+ (* b__83 a__17 a__54) (* (- 0 1) (* b__83 a__54))) 0) (>= (+ (* b__88 a__17 a__73) (* (- 0 1) (* b__88 a__73))) 0) (>= (+ (* b__88 a__12 a__73) (* (- 0 1) (* b__88 a__73))) 0) (>= (+ (* b__83 a__12 a__62) (* (- 0 1) (* b__83 a__62))) 0) (>= (+ (* b__83 a__12 a__61) (* (- 0 1) (* b__83 a__61))) 0) (>= (+ (* b__83 a__17 a__61) (* (- 0 1) (* b__83 a__61))) 0) (>= (+ (* b__83 a__17 a__62) (* (- 0 1) (* b__83 a__62))) 0) (>= (+ (* b__83 a__12 a__67) (* (- 0 1) (* b__83 a__67))) 0) (>= (+ (* b__83 a__12 a__66) (* (- 0 1) (* b__83 a__66))) 0) (>= (+ (* b__83 a__17 a__66) (* (- 0 1) (* b__83 a__66))) 0) (>= (+ (* b__83 a__17 a__67) (* (- 0 1) (* b__83 a__67))) 0) (>= (+ (* b__89 a__17 a__75) (* (- 0 1) (* b__89 a__75))) 0) (>= (+ (* b__89 a__12 a__75) (* (- 0 1) (* b__89 a__75))) 0) (>= (* a__3 a__2) 0) (>= (+ a__5 (* a__7 a__6) (* a__10 a__8 a__6) (* (- 0 1) a__1)) 0) (>= (+ a__1 (* a__7 a__2) (* (- 0 1) a__5) (* (- 0 1) (* a__7 a__6)) (* (- 0 1) (* a__11 a__8 a__6))) 0) (>= (* a__7 a__2) 0) (not (and (= (* a__3 a__2) 0) (= (+ a__5 (* a__7 a__6) (* a__10 a__8 a__6) (* (- 0 1) a__1)) 0) (= (+ a__1 (* a__7 a__2) (* (- 0 1) a__5) (* (- 0 1) (* a__7 a__6)) (* (- 0 1) (* a__11 a__8 a__6))) 0) (= (* a__7 a__2) 0))) (>= b__81 0) (>= 1 b__81) (>= a__6 0) (>= a__8 0) (>= b__82 0) (>= 1 b__82) (>= b__83 0) (>= 1 b__83) (>= a__17 0) (>= a__12 0) (>= b__84 0) (>= 1 b__84) (>= a__23 0) (>= a__50 0) (>= a__56 0) (>= b__85 0) (>= 1 b__85) (>= a__31 0) (>= a__36 0) (>= a__47 0) (>= a__59 0) (>= b__86 0) (>= 1 b__86) (>= a__4 0) (>= a__64 0) (>= b__87 0) (>= 1 b__87) (>= a__69 0) (>= b__88 0) (>= 1 b__88) (>= a__19 0) (>= a__38 0) (>= a__61 0) (>= a__66 0) (>= a__9 0) (>= b__89 0) (>= 1 b__89) (>= a__2 0) (>= a__11 0) (>= a__13 0) (>= a__16 0) (>= a__14 0) (>= a__15 0) (>= a__18 0) (>= a__20 0) (>= a__21 0) (>= a__22 0) (>= a__24 0) (>= a__25 0) (>= a__10 0) (>= a__26 0) (>= a__27 0) (>= a__28 0) (>= a__29 0) (>= a__30 0) (>= a__33 0) (>= a__34 0) (>= a__32 0) (>= a__35 0) (>= a__37 0) (>= a__3 0) (>= a__40 0) (>= a__39 0) (>= a__41 0) (>= a__42 0) (>= a__43 0) (>= a__46 0) (>= a__44 0) (>= a__45 0) (>= a__48 0) (>= a__49 0) (>= a__51 0) (>= a__52 0) (>= a__55 0) (>= a__53 0) (>= a__54 0) (>= a__57 0) (>= a__58 0) (>= a__60 0) (>= a__63 0) (>= a__62 0) (>= a__65 0) (>= a__68 0) (>= a__70 0) (>= a__67 0) (>= a__71 0) (>= a__7 0) (>= a__72 0) (>= a__73 0) (>= a__74 0) (>= a__75 0) (>= a__76 0) (>= a__77 0) (>= a__78 0) (>= a__79 0) (>= a__80 0) (>= a__5 0) (>= a__1 0)))
(check-sat)
;;(get-assignment)
;;(get-model)
(exit)
